Instance0
Objective;Best_Integer;Best_Bound
262.6193;639.6325;262.6193
288.8460;639.6325;Cuts:9
305.8789;462.8177;Cuts:12
318.2257;462.8177;Cuts:6
324.9774;462.8177;Cuts:11
329.3181;415.0905;Cuts:9
329.9961;415.0905;Disjcuts:2
330.1324;415.0905;Disjcuts:1
330.1324;415.0905;330.1489
CPXPARAM_MIP_Cuts_Gomory-Disjunctive:Gomory 1
CPXPARAM_MIP_Cuts_Gomory-Disjunctive:Disjunctive 9
Instance1
Objective;Best_Integer;Best_Bound
integral;262.6193;262.6193
CPXPARAM_MIP_Cuts_Gomory-Disjunctive:Gomory 0
CPXPARAM_MIP_Cuts_Gomory-Disjunctive:Disjunctive 0
Instance2
Objective;Best_Integer;Best_Bound
269.4766;639.6325;269.4766
279.5547;639.6325;Cuts:7
304.5945;583.4780;Cuts:9
319.5845;423.2225;Cuts:7
327.3465;415.0905;Cuts:11
334.5675;415.0905;Cuts:3
334.7849;415.0905;Disjcuts:3
335.8994;415.0905;Disjcuts:2
336.0930;415.0905;Cuts:2
336.7060;415.0905;336.8576
CPXPARAM_MIP_Cuts_Gomory-Disjunctive:Gomory 1
CPXPARAM_MIP_Cuts_Gomory-Disjunctive:Disjunctive 9
Instance3
Objective;Best_Integer;Best_Bound
314.8220;883.5817;314.8220
integral;314.8876;Fract:1
cutoff;314.8876;40
CPXPARAM_MIP_Cuts_Gomory-Disjunctive:Gomory 1
CPXPARAM_MIP_Cuts_Gomory-Disjunctive:Disjunctive 0
Instance4
Objective;Best_Integer;Best_Bound
405.5114;634.5912;405.5114
410.2300;634.5912;Cuts:8
417.1787;455.9855;Cuts:10
420.4595;455.9855;Cuts:9
421.3646;455.9855;Cuts:5
423.0949;455.9855;Cuts:8
424.0207;441.1644;Disjcuts:1
cutoff;424.0207;131
CPXPARAM_MIP_Cuts_Gomory-Disjunctive:Gomory 4
CPXPARAM_MIP_Cuts_Gomory-Disjunctive:Disjunctive 4
Instance5
Objective;Best_Integer;Best_Bound
405.5114;693.8542;405.5114
integral;405.9187;405.9187
CPXPARAM_MIP_Cuts_Gomory-Disjunctive:Gomory 0
CPXPARAM_MIP_Cuts_Gomory-Disjunctive:Disjunctive 0
Instance6
Objective;Best_Integer;Best_Bound
405.5114;648.3061;405.5114
412.6168;648.3061;Cuts:8
416.7749;449.4074;Cuts:15
419.2781;449.4074;Cuts:10
420.5589;449.4074;Cuts:10
421.2343;449.4074;Cuts:9
421.4201;449.4074;Cuts:3
421.5882;441.1644;Disjcuts:2
421.6094;441.1644;Disjcuts:1
421.9821;441.1644;422.1379
CPXPARAM_MIP_Cuts_Gomory-Disjunctive:Gomory 2
CPXPARAM_MIP_Cuts_Gomory-Disjunctive:Disjunctive 8
Instance7
Objective;Best_Integer;Best_Bound
integral;425.0746;425.0746
CPXPARAM_MIP_Cuts_Gomory-Disjunctive:Gomory 0
CPXPARAM_MIP_Cuts_Gomory-Disjunctive:Disjunctive 0
Instance8
Objective;Best_Integer;Best_Bound
484.8467;648.8417;484.8467
509.7426;648.8417;Cuts:8
518.6715;626.4130;Cuts:13
527.3607;626.4130;Cuts:14
531.5470;626.4130;Cuts:10
533.8480;626.4130;Cuts:7
534.0262;626.4130;Disjcuts:1
534.5524;626.4130;Disjcuts:3
535.3269;626.4130;Cuts:3
538.6831;589.5104;538.7571
CPXPARAM_MIP_Cuts_Gomory-Disjunctive:Gomory 2
CPXPARAM_MIP_Cuts_Gomory-Disjunctive:Disjunctive 9
Instance9
Objective;Best_Integer;Best_Bound
integral;484.8467;484.8467
CPXPARAM_MIP_Cuts_Gomory-Disjunctive:Gomory 0
CPXPARAM_MIP_Cuts_Gomory-Disjunctive:Disjunctive 0
Instance10
Objective;Best_Integer;Best_Bound
498.6071;845.6683;498.6071
504.9148;697.1349;Cuts:8
520.4711;648.8417;Cuts:11
526.5275;595.8307;Cuts:8
530.1505;595.8307;Cuts:8
535.8545;595.8307;Cuts:9
536.9475;589.5104;Cuts:2
537.1500;589.5104;Disjcuts:2
538.2506;589.5104;538.6319
CPXPARAM_MIP_Cuts_Gomory-Disjunctive:Gomory 1
CPXPARAM_MIP_Cuts_Gomory-Disjunctive:Disjunctive 8
Instance11
Objective;Best_Integer;Best_Bound
integral;561.1585;561.1585
CPXPARAM_MIP_Cuts_Gomory-Disjunctive:Gomory 0
CPXPARAM_MIP_Cuts_Gomory-Disjunctive:Disjunctive 0
Instance12
Objective;Best_Integer;Best_Bound
386.2283;534.4657;386.2283
391.1700;534.4657;Cuts:7
397.9503;521.2586;Cuts:12
406.1983;518.5366;Disjcuts:7
413.0255;474.3633;Cuts:10
417.7289;474.3633;Cuts:11
418.0980;474.3633;Fract:1
418.4048;474.3633;Disjcuts:1
418.4048;474.3633;418.6435
CPXPARAM_MIP_Cuts_Gomory-Disjunctive:Gomory 4
CPXPARAM_MIP_Cuts_Gomory-Disjunctive:Disjunctive 6
Instance13
Objective;Best_Integer;Best_Bound
integral;389.1110;389.1110
CPXPARAM_MIP_Cuts_Gomory-Disjunctive:Gomory 0
CPXPARAM_MIP_Cuts_Gomory-Disjunctive:Disjunctive 0
Instance14
Objective;Best_Integer;Best_Bound
386.2283;534.4657;386.2283
391.4708;534.4657;Cuts:8
397.8640;521.2586;Cuts:10
408.1704;518.5366;Cuts:10
414.5125;474.3633;Cuts:9
417.1019;474.3633;Cuts:7
417.2313;474.3633;Disjcuts:1
417.3454;474.3633;Disjcuts:1
417.4182;465.9177;Disjcuts:1
417.4182;465.9177;417.8835
CPXPARAM_MIP_Cuts_Gomory-Disjunctive:Gomory 3
CPXPARAM_MIP_Cuts_Gomory-Disjunctive:Disjunctive 10
Instance15
Objective;Best_Integer;Best_Bound
integral;410.1756;410.1756
CPXPARAM_MIP_Cuts_Gomory-Disjunctive:Gomory 0
CPXPARAM_MIP_Cuts_Gomory-Disjunctive:Disjunctive 0
Instance16
Objective;Best_Integer;Best_Bound
417.5617;482.5302;417.5617
420.1512;482.5302;Fract:6
425.5001;475.1344;Cuts:14
429.4528;465.5226;Cuts:12
430.3731;465.5226;Cuts:9
430.4825;465.5226;Cuts:6
430.7108;465.5226;Cuts:4
430.8628;465.5226;Cuts:2
430.8655;465.5226;Disjcuts:2
430.9767;465.5226;431.4000
CPXPARAM_MIP_Cuts_Gomory-Disjunctive:Gomory 3
CPXPARAM_MIP_Cuts_Gomory-Disjunctive:Disjunctive 8
Instance17
Objective;Best_Integer;Best_Bound
integral;425.9937;425.9937
CPXPARAM_MIP_Cuts_Gomory-Disjunctive:Gomory 0
CPXPARAM_MIP_Cuts_Gomory-Disjunctive:Disjunctive 0
Instance18
Objective;Best_Integer;Best_Bound
423.0032;673.4267;423.0032
424.6875;591.6412;Cuts:7
427.2742;465.5226;Cuts:8
427.7125;465.5226;Cuts:10
431.0672;465.5226;Cuts:11
432.6329;465.5226;Cuts:8
433.2353;465.5226;Cuts:7
433.8931;465.5226;433.8996
CPXPARAM_MIP_Cuts_Gomory-Disjunctive:Gomory 1
CPXPARAM_MIP_Cuts_Gomory-Disjunctive:Disjunctive 6
Instance19
Objective;Best_Integer;Best_Bound
integral;446.2379;446.2379
CPXPARAM_MIP_Cuts_Gomory-Disjunctive:Gomory 0
CPXPARAM_MIP_Cuts_Gomory-Disjunctive:Disjunctive 0
Instance20
Objective;Best_Integer;Best_Bound
283.8374;499.7053;283.8374
286.5261;335.4671;Cuts:6
291.9810;335.4671;Cuts:10
296.9879;315.2212;Cuts:9
299.6014;315.2212;Cuts:8
301.0323;315.2212;Disjcuts:3
301.3002;315.2212;301.4087
CPXPARAM_MIP_Cuts_Gomory-Disjunctive:Gomory 1
CPXPARAM_MIP_Cuts_Gomory-Disjunctive:Disjunctive 4
Instance21
Objective;Best_Integer;Best_Bound
integral;283.8374;283.8374
CPXPARAM_MIP_Cuts_Gomory-Disjunctive:Gomory 0
CPXPARAM_MIP_Cuts_Gomory-Disjunctive:Disjunctive 0
Instance22
Objective;Best_Integer;Best_Bound
286.9244;502.7786;286.9244
295.3304;406.3795;Cuts:9
302.3762;392.9654;Cuts:9
303.0126;331.4363;Disjcuts:3
304.2656;331.4363;Disjcuts:3
305.7708;315.4732;Disjcuts:2
305.8876;315.4732;Disjcuts:2
306.2112;315.4732;Disjcuts:1
307.3903;315.4732;307.3910
CPXPARAM_MIP_Cuts_Gomory-Disjunctive:Gomory 0
CPXPARAM_MIP_Cuts_Gomory-Disjunctive:Disjunctive 5
Instance23
Objective;Best_Integer;Best_Bound
integral;293.4740;293.4740
CPXPARAM_MIP_Cuts_Gomory-Disjunctive:Gomory 0
CPXPARAM_MIP_Cuts_Gomory-Disjunctive:Disjunctive 0
Instance24
Objective;Best_Integer;Best_Bound
363.2658;473.7492;363.2658
366.2716;458.3613;Cuts:8
368.7913;444.0143;Cuts:6
371.9429;399.6484;Cuts:6
373.9497;399.6484;Cuts:7
376.3290;399.6484;Cuts:6
376.3290;399.6484;377.1398
CPXPARAM_MIP_Cuts_Gomory-Disjunctive:Gomory 1
CPXPARAM_MIP_Cuts_Gomory-Disjunctive:Disjunctive 6
Instance25
Objective;Best_Integer;Best_Bound
integral;372.4575;372.4575
CPXPARAM_MIP_Cuts_Gomory-Disjunctive:Gomory 0
CPXPARAM_MIP_Cuts_Gomory-Disjunctive:Disjunctive 0
Instance26
Objective;Best_Integer;Best_Bound
372.1627;476.4585;372.1627
377.4827;476.4585;Cuts:6
381.4449;404.2019;Cuts:9
383.5356;399.6484;Cuts:11
385.8305;399.6484;Cuts:9
386.5270;399.6484;Cuts:7
386.5473;399.6484;388.0601
CPXPARAM_MIP_Cuts_Gomory-Disjunctive:Gomory 2
CPXPARAM_MIP_Cuts_Gomory-Disjunctive:Disjunctive 5
Instance27
Objective;Best_Integer;Best_Bound
integral;385.0255;385.0255
CPXPARAM_MIP_Cuts_Gomory-Disjunctive:Gomory 0
CPXPARAM_MIP_Cuts_Gomory-Disjunctive:Disjunctive 0
Instance28
Objective;Best_Integer;Best_Bound
601.4591;872.5219;601.4591
604.1563;737.8283;Cuts:5
616.0250;696.2579;Cuts:11
620.6590;652.5589;Cuts:11
623.0150;652.5589;Cuts:7
625.8022;652.5589;Cuts:6
627.0816;652.5589;628.8981
CPXPARAM_MIP_Cuts_Gomory-Disjunctive:Gomory 2
CPXPARAM_MIP_Cuts_Gomory-Disjunctive:Disjunctive 6
Instance29
Objective;Best_Integer;Best_Bound
integral;596.9704;596.9704
CPXPARAM_MIP_Cuts_Gomory-Disjunctive:Gomory 0
CPXPARAM_MIP_Cuts_Gomory-Disjunctive:Disjunctive 0
Instance30
Objective;Best_Integer;Best_Bound
601.4591;877.2624;601.4591
603.7062;696.2579;Disjcuts:4
613.9728;696.2579;Cuts:12
620.5518;652.5589;Cuts:11
623.9446;652.5589;Cuts:7
628.3535;652.5589;Disjcuts:6
cutoff;628.3535;107
CPXPARAM_MIP_Cuts_Gomory-Disjunctive:Gomory 1
CPXPARAM_MIP_Cuts_Gomory-Disjunctive:Disjunctive 7
Instance31
Objective;Best_Integer;Best_Bound
integral;601.4591;601.4591
CPXPARAM_MIP_Cuts_Gomory-Disjunctive:Gomory 0
CPXPARAM_MIP_Cuts_Gomory-Disjunctive:Disjunctive 0
Instance32
Objective;Best_Integer;Best_Bound
285.1772;538.6067;285.1772
296.8300;527.4518;Cuts:7
311.8492;398.4261;Cuts:9
320.8619;392.1998;Cuts:7
328.1000;392.1998;Cuts:4
332.5092;392.1998;Cuts:4
335.3132;392.1998;Cuts:2
335.3784;392.1998;Cuts:2
335.3784;392.1998;335.7984
CPXPARAM_MIP_Cuts_Gomory-Disjunctive:Gomory 1
CPXPARAM_MIP_Cuts_Gomory-Disjunctive:Disjunctive 5
Instance33
Objective;Best_Integer;Best_Bound
304.9439;671.2898;304.9439
integral;304.9870;304.9870
CPXPARAM_MIP_Cuts_Gomory-Disjunctive:Gomory 0
CPXPARAM_MIP_Cuts_Gomory-Disjunctive:Disjunctive 0
Instance34
Objective;Best_Integer;Best_Bound
304.9439;548.6165;304.9439
307.5007;522.3973;Cuts:8
313.7304;462.2964;Cuts:8
321.4216;441.6085;Cuts:7
329.3930;392.1998;Disjcuts:8
333.8761;392.1998;Cuts:4
337.7138;392.1998;Disjcuts:1
338.2401;392.1998;Disjcuts:1
338.5977;392.1998;Disjcuts:2
339.8585;392.1998;343.1635
CPXPARAM_MIP_Cuts_Gomory-Disjunctive:Gomory 0
CPXPARAM_MIP_Cuts_Gomory-Disjunctive:Disjunctive 7
Instance35
Objective;Best_Integer;Best_Bound
integral;363.5184;363.5184
CPXPARAM_MIP_Cuts_Gomory-Disjunctive:Gomory 0
CPXPARAM_MIP_Cuts_Gomory-Disjunctive:Disjunctive 0
Instance36
Objective;Best_Integer;Best_Bound
431.0120;643.3001;431.0120
434.0791;591.9356;Cuts:7
439.1996;591.9356;Cuts:8
444.6456;534.0033;Cuts:10
446.6066;497.5652;Cuts:7
449.5051;497.5652;Cuts:4
449.8311;497.5652;Disjcuts:2
450.0970;497.5652;450.2439
CPXPARAM_MIP_Cuts_Gomory-Disjunctive:Gomory 1
CPXPARAM_MIP_Cuts_Gomory-Disjunctive:Disjunctive 9
Instance37
Objective;Best_Integer;Best_Bound
integral;431.0120;431.0120
CPXPARAM_MIP_Cuts_Gomory-Disjunctive:Gomory 0
CPXPARAM_MIP_Cuts_Gomory-Disjunctive:Disjunctive 0
Instance38
Objective;Best_Integer;Best_Bound
431.2487;644.4799;431.2487
434.3898;591.9356;Cuts:5
440.0590;591.9356;Cuts:15
444.6999;534.0033;Cuts:8
446.9112;497.5652;Cuts:7
449.3174;497.5652;Cuts:7
449.5423;497.5652;450.5357
CPXPARAM_MIP_Cuts_Gomory-Disjunctive:Gomory 4
CPXPARAM_MIP_Cuts_Gomory-Disjunctive:Disjunctive 6
Instance39
Objective;Best_Integer;Best_Bound
cutoff;451.8439;34
cutoff;451.8439;34
CPXPARAM_MIP_Cuts_Gomory-Disjunctive:Gomory 0
CPXPARAM_MIP_Cuts_Gomory-Disjunctive:Disjunctive 0
